\ Model idol-model
\ LP format - for model browsing. Use MPS format to capture full model detail.
\ Signature: 0x4a7bbdbe599872c
Minimize
 
Subject To
 KF0: 8 __copy_y22 + 2 __copy_y21 + 8 __copy_y20 + 5 __copy_y19
   + __copy_y18 + 4 __copy_y17 + 4 __copy_y16 + 6 __copy_y15 + 8 __copy_y13
   + 3 __copy_y9 + 20 __copy_y8 + __copy_y7 + 15 __copy_y5 + 12 __copy_y4
   + 8 __copy_y3 + 5 __copy_y2 + 6 __copy_y12 + 20 __copy_y24
   + 39 __copy_y1 + 40 __copy_y11 + 38 __copy_y0 <= 168
 KF1: 3 __copy_y22 + __copy_y21 + 6 __copy_y20 + 3 __copy_y18
   + 8 __copy_y16 + 4 __copy_y15 + 38 __copy_y13 + 6 __copy_y9
   + 4 __copy_y8 + 2 __copy_y7 + 4 __copy_y5 + 3 __copy_y4 + 7 __copy_y2
   + 15 __copy_y12 + 3 __copy_y24 + 52 __copy_y1 + 18 __copy_y11
   + 38 __copy_y0 + 4 __copy_y26 + 10 __copy_y14 + __copy_y10 + __copy_y6
   + 5 __copy_y25 <= 160
 I0: __copy_y0 + x0 <= 1
 I1: __copy_y1 + x1 <= 1
 I2: __copy_y2 + x2 <= 1
 I3: __copy_y3 + x3 <= 1
 I4: __copy_y4 + x4 <= 1
 I5: __copy_y5 + x5 <= 1
 I6: __copy_y6 + x6 <= 1
 I7: __copy_y7 + x7 <= 1
 I8: __copy_y8 + x8 <= 1
 I9: __copy_y9 + x9 <= 1
 I10: __copy_y10 + x10 <= 1
 I11: __copy_y11 + x11 <= 1
 I12: __copy_y12 + x12 <= 1
 I13: __copy_y13 + x13 <= 1
 I14: __copy_y14 + x14 <= 1
 I15: __copy_y15 + x15 <= 1
 I16: __copy_y16 + x16 <= 1
 I17: __copy_y17 + x17 <= 1
 I18: __copy_y18 + x18 <= 1
 I19: __copy_y19 + x19 <= 1
 I20: __copy_y20 + x20 <= 1
 I21: __copy_y21 + x21 <= 1
 I22: __copy_y22 + x22 <= 1
 I23: __copy_y23 + x23 <= 1
 I24: __copy_y24 + x24 <= 1
 I25: __copy_y25 + x25 <= 1
 I26: __copy_y26 + x26 <= 1
Bounds
Binaries
 __copy_y22 __copy_y21 __copy_y20 __copy_y19 __copy_y18 __copy_y17
 __copy_y16 __copy_y15 __copy_y13 __copy_y9 __copy_y8 __copy_y7 __copy_y5
 __copy_y4 __copy_y3 __copy_y2 __copy_y12 __copy_y24 __copy_y1 __copy_y11
 __copy_y0 __copy_y26 __copy_y14 __copy_y10 __copy_y6 __copy_y25 x0 x1 x2
 x3 x4 x5 x6 x7 x8 x9 x10 x11 x12 x13 x14 x15 x16 x17 x18 x19 x20 x21 x22
 __copy_y23 x23 x24 x25 x26
End
